22123.8	11
21952.3	11
21931.7	11
21666.3	11
21476.1	11
21467.4	11
21496	11
21450.7	11
21462.2	11
21470	11
21508.2	11
21460.7	11
21482	11
21478.2	11
21430.7	11
21475.9	11
21487	11
21438.8	11
21461.4	11
21437.4	11
21440.5	11
21504.1	11
21465.4	11
21455.9	11
21432.7	11
21457.9	11
21440.1	11
21473.3	11
21438.1	11
21456	11
21440.5	11
21455.7	11
21434	11
21441	11
21466.8	11
21438.8	11
21430.5	11
21459.4	11
21474.9	11
21442.5	11
21450.1	11
21734.2	11
21869.3	11
21504.1	11
21517.1	11
21565	11
21471	11
21447.4	11
21498.3	11
21451.6	11
